HEIGHT = 13;
WIDTH = 11;
AGENTS = 8;

path = array2d(1..AGENTS, Marker,
  [|(y:  3, x:  1, d: ">"), (y:  8, x: 11, d: ">")
   |(y:  4, x:  1, d: ">"), (y:  9, x: 11, d: ">")
   |(y:  5, x:  1, d: ">"), (y:  3, x: 11, d: ">")
   |(y:  6, x:  1, d: ">"), (y: 10, x: 11, d: ">")
   |(y:  8, x:  1, d: ">"), (y:  4, x: 11, d: ">")
   |(y:  9, x:  1, d: ">"), (y: 11, x: 11, d: ">")
   |(y: 10, x:  1, d: ">"), (y:  6, x: 11, d: ">")
   |(y: 11, x:  1, d: ">"), (y:  5, x: 11, d: ">")|]);
